_reconciled.nl
g3 1 1 0	# problem unknown
 32 32 0 0 32 	# vars, constraints, objectives, ranges, eqns
 0 0 0 0 0 0	# nonlinear constrs, objs; ccons: lin, nonlin, nd, nzlb
 0 0	# network constraints: nonlinear, linear
 0 0 0 	# nonlinear vars in constraints, objectives, both
 0 0 0 1	# linear network variables; functions; arith, flags
 0 0 0 0 0 	# discrete variables: binary, integer, nonlinear (b,c,o)
 86 0 	# nonzeros in Jacobian, obj. gradient
 29 16	# max name lengths: constraints, variables
 0 0 0 0 0	# common exprs: b,c,o,c1,o1
C0	#odes[0.155051,A]
n0
C1	#odes[0.155051,B]
n0
C2	#odes[0.155051,C]
n0
C3	#odes[0.155051,V]
n0
C4	#odes[0.644949,A]
n0
C5	#odes[0.644949,B]
n0
C6	#odes[0.644949,C]
n0
C7	#odes[0.644949,V]
n0
C8	#odes[1,A]
n0
C9	#odes[1,B]
n0
C10	#odes[1,C]
n0
C11	#odes[1,V]
n0
C12	#algebraic_consts[0,rA]
n0
C13	#algebraic_consts[0,rB]
n0
C14	#algebraic_consts[0.155051,rA]
n0
C15	#algebraic_consts[0.155051,rB]
n0
C16	#algebraic_consts[0.644949,rA]
n0
C17	#algebraic_consts[0.644949,rB]
n0
C18	#algebraic_consts[1,rA]
n0
C19	#algebraic_consts[1,rB]
n0
C20	#dZdt_deq_aug[0.155051,A]
n0
C21	#dZdt_deq_aug[0.155051,B]
n0
C22	#dZdt_deq_aug[0.155051,C]
n0
C23	#dZdt_deq_aug[0.644949,A]
n0
C24	#dZdt_deq_aug[0.644949,B]
n0
C25	#dZdt_deq_aug[0.644949,C]
n0
C26	#dZdt_deq_aug[1,A]
n0
C27	#dZdt_deq_aug[1,B]
n0
C28	#dZdt_deq_aug[1,C]
n0
C29	#dXdt_deq_aug[0.155051,V]
n0
C30	#dXdt_deq_aug[0.644949,V]
n0
C31	#dXdt_deq_aug[1,V]
n0
x12	# initial guess
0 1
1 1
2 1
3 1
4 1
5 1
6 1
7 1
8 1
18 1
19 1
20 1
r	#32 ranges (rhs's)
4 0.0
4 0.0
4 0.0
4 0.0
4 0.0
4 0.0
4 0.0
4 0.0
4 0.0
4 0.0
4 0.0
4 0.0
4 2.0
4 0.2
4 0.0
4 0.0
4 0.0
4 0.0
4 0.0
4 0.0
4 -4.139387691339813
4 -4.139387691339813
4 -4.139387691339813
4 1.7393876913398163
4 1.7393876913398163
4 1.7393876913398163
4 -2.999999999999993
4 -2.999999999999993
4 -2.999999999999993
4 -4.139387691339813
4 1.7393876913398163
4 -2.999999999999993
b	#32 bounds (on variables)
3
3
3
3
3
3
3
3
3
3
3
3
3
3
3
3
3
3
3
3
3
3
3
3
3
3
3
3
3
3
3
3
k31	#intermediate Jacobian column lengths
6
12
15
21
27
30
36
42
45
47
49
51
53
55
57
59
61
63
66
69
72
74
76
78
79
80
81
82
83
84
85
J0 2
0 2.0
9 1
J1 3
0 -2.0
1 0.2
10 1
J2 2
1 -0.2
11 1
J3 1
21 1
J4 2
3 2.0
12 1
J5 3
3 -2.0
4 0.2
13 1
J6 2
4 -0.2
14 1
J7 1
22 1
J8 2
6 2.0
15 1
J9 3
6 -2.0
7 0.2
16 1
J10 2
7 -0.2
17 1
J11 1
23 1
J12 1
24 1
J13 1
25 1
J14 2
0 -2.0
26 1
J15 2
1 -0.2
27 1
J16 2
3 -2.0
28 1
J17 2
4 -0.2
29 1
J18 2
6 -2.0
30 1
J19 2
7 -0.2
31 1
J20 4
0 -3.2247448713915885
3 -1.1678400846904051
6 0.2531972647421808
9 1.0
J21 4
1 -3.2247448713915885
4 -1.1678400846904051
7 0.2531972647421808
10 1.0
J22 4
2 -3.2247448713915885
5 -1.1678400846904051
8 0.2531972647421808
11 1.0
J23 4
0 3.5678400846904044
3 -0.7752551286084095
6 -1.0531972647421817
12 1.0
J24 4
1 3.5678400846904044
4 -0.7752551286084095
7 -1.0531972647421817
13 1.0
J25 4
2 3.5678400846904044
5 -0.7752551286084095
8 -1.0531972647421817
14 1.0
J26 4
0 -5.531972647421805
3 7.531972647421807
6 -5.000000000000001
15 1.0
J27 4
1 -5.531972647421805
4 7.531972647421807
7 -5.000000000000001
16 1.0
J28 4
2 -5.531972647421805
5 7.531972647421807
8 -5.000000000000001
17 1.0
J29 4
18 -3.2247448713915885
19 -1.1678400846904051
20 0.2531972647421808
21 1.0
J30 4
18 3.5678400846904044
19 -0.7752551286084095
20 -1.0531972647421817
22 1.0
J31 4
18 -5.531972647421805
19 7.531972647421807
20 -5.000000000000001
23 1.0
