_reconciled.col
Z[0.155051,A]
Z[0.155051,B]
Z[0.155051,C]
Z[0.644949,A]
Z[0.644949,B]
Z[0.644949,C]
Z[1,A]
Z[1,B]
Z[1,C]
dZdt[0.155051,A]
dZdt[0.155051,B]
dZdt[0.155051,C]
dZdt[0.644949,A]
dZdt[0.644949,B]
dZdt[0.644949,C]
dZdt[1,A]
dZdt[1,B]
dZdt[1,C]
X[0.155051,V]
X[0.644949,V]
X[1,V]
dXdt[0.155051,V]
dXdt[0.644949,V]
dXdt[1,V]
Y[0,rA]
Y[0,rB]
Y[0.155051,rA]
Y[0.155051,rB]
Y[0.644949,rA]
Y[0.644949,rB]
Y[1,rA]
Y[1,rB]
